LibMLKEM/why3-cvc5/mlkem.adb_1865_31_loop_variant_1.smt2
;; produced by cvc5.drv ;;
(set-logic ALL)
(set-info :smt-lib-version 2.6)
;;; generated by SMT-LIB2 driver
;;; SMT-LIB2 driver: bit-vectors, common part
;;; SMT-LIB2: integer arithmetic
;; "pow2"
(declare-fun pow2 (Int) Int)

(declare-const two_power_size_minus_one Int)

;; "two_power_size_minus_one_val"
(assert (= two_power_size_minus_one (pow2 (- 8 1))))

;; "min"
(define-fun min ((x Int) (y Int)) Int
  (ite (<= x y) x y))

;; "max"
(define-fun max ((x Int) (y Int)) Int
  (ite (<= x y) y x))

;; "Min_r"
(assert (forall ((x Int) (y Int)) (=> (<= y x) (= (min x y) y))))

;; "Max_l"
(assert (forall ((x Int) (y Int)) (=> (<= y x) (= (max x y) x))))

;; "Min_comm"
(assert (forall ((x Int) (y Int)) (= (min x y) (min y x))))

;; "Max_comm"
(assert (forall ((x Int) (y Int)) (= (max x y) (max y x))))

;; "Min_assoc"
(assert
  (forall ((x Int) (y Int) (z Int)) (= (min (min x y) z) (min x (min y z)))))

;; "Max_assoc"
(assert
  (forall ((x Int) (y Int) (z Int)) (= (max (max x y) z) (max x (max y z)))))

(declare-sort byte 0)

(declare-sort tinteger_32B 0)

;; "tinteger_32B'int"
(declare-fun tinteger_32Bqtint (tinteger_32B) Int)

;; "tinteger_32B'axiom"
(assert
  (forall ((i tinteger_32B))
    (and
      (<= (- 2147483648) (tinteger_32Bqtint i))
      (<= (tinteger_32Bqtint i) 2147483647))))

;; "in_range"
(define-fun in_range ((x Int)) Bool
  (and (<= (- 2147483648) x) (<= x 2147483647)))

;; "to_rep"
(define-fun to_rep ((x tinteger_32B)) Int
  (tinteger_32Bqtint x))

;; "of_rep"
(declare-fun of_rep (Int) tinteger_32B)

;; "inversion_axiom"
(assert
  (forall ((x tinteger_32B))
    (! (= (of_rep (to_rep x)) x) :pattern ((to_rep x)) )))

;; "range_axiom"
(assert
  (forall ((x tinteger_32B))
    (! (in_range (to_rep x)) :pattern ((to_rep x)) )))

;; "coerce_axiom"
(assert
  (forall ((x Int))
    (! (=> (in_range x) (= (to_rep (of_rep x)) x)) :pattern ((to_rep
                                                               (of_rep x))) )))

;; "in_range"
(define-fun in_range1 ((x Int)) Bool
  (and (<= 0 x) (<= x 2147483647)))

;; "to_rep"
(declare-fun to_rep1 (byte) (_ BitVec 8))

;; "of_rep"
(declare-fun of_rep1 ((_ BitVec 8)) byte)

;; "inversion_axiom"
(assert
  (forall ((x byte)) (! (= (of_rep1 (to_rep1 x)) x) :pattern ((to_rep1 x)) )))

;; "range_axiom"
(assert true)

;; "coerce_axiom"
(assert
  (forall ((x (_ BitVec 8)))
    (! (= (to_rep1 (of_rep1 x)) x) :pattern ((to_rep1 (of_rep1 x))) )))

(declare-sort map1 0)

;; "has_bounds"
(declare-fun has_bounds (map1
  Int
  Int) Bool)

;; "get"
(declare-fun get (map1
  Int) byte)

(declare-datatypes ((t 0))
  (((tqtmk (rec__first tinteger_32B)(rec__last tinteger_32B)))))

;; "dynamic_property"
(define-fun dynamic_property ((range_first Int) (range_last Int) (low Int) (high Int)) Bool
  (and
    (in_range low)
    (and
      (in_range high)
      (=> (<= low high) (and (in_range1 low) (in_range1 high))))))

(declare-datatypes ((us_t 0))
  (((us_tqtmk (elts map1)(rt t)))))

;; "to_array"
(define-fun to_array ((a us_t)) map1
  (elts a))

;; "first"
(define-fun first ((a us_t)) Int
  (to_rep (rec__first (rt a))))

;; "last"
(define-fun last ((a us_t)) Int
  (to_rep (rec__last (rt a))))

;; "length"
(define-fun length ((a us_t)) Int
  (ite (<= (first a) (last a)) (+ (- (last a) (first a)) 1) 0))

;; "well_formed"
(define-fun well_formed ((a us_t)) Bool
  (has_bounds
    (elts a)
    (to_rep (rec__first (rt a)))
    (to_rep (rec__last (rt a)))))

(declare-const x us_t)

(declare-const y us_t)

;; "dynamic_invariant"
(define-fun dynamic_invariant ((temp___expr_690 us_t) (temp___is_init_686 Bool) (temp___skip_constant_687 Bool) (temp___do_toplevel_688 Bool) (temp___do_typ_inv_689 Bool)) Bool
  (and
    (=>
      (not (= temp___skip_constant_687 true))
      (dynamic_property
        0
        2147483647
        (first temp___expr_690)
        (last temp___expr_690)))
    (well_formed temp___expr_690)))

;; Goal "def'vc"
;; File "mlkem.adb", line 1842, characters 0-0
(assert
  (not
  (=>
    (dynamic_invariant x true false true true)
    (=>
      (dynamic_invariant y true false true true)
      (=>
        (and
          (and
            (and
              (and (= (first x) (first y)) (= (last x) (last y)))
              (<= 1 (length x)))
            (<= 1 (length y)))
          (= (length x) (length y)))
        (forall ((d Bool))
          (=>
            (= d true)
            (let ((o (first x)))
              (=>
                (in_range1 o)
                (forall ((i Int))
                  (=>
                    (= i o)
                    (=>
                      (in_range1 i)
                      (=>
                        (and (<= (first y) i) (<= i (last y)))
                        (forall ((o1 (_ BitVec 8)))
                          (=>
                            (= (to_rep1 (get (to_array y) i)) o1)
                            (=>
                              (and (<= (first x) i) (<= i (last x)))
                              (forall ((o2 (_ BitVec 8)))
                                (=>
                                  (= (to_rep1 (get (to_array x) i)) o2)
                                  (forall ((d1 Bool))
                                    (=>
                                      (= d1 (and d (ite (= o2 o1) true false)))
                                      (forall ((d2 Bool) (i1 Int))
                                        (=>
                                          (and
                                            (and
                                              (<= (first x) i1)
                                              (<= i1 (last x)))
                                            (=
                                              (= d2 true)
                                              (forall ((j Int))
                                                (=>
                                                  (and
                                                    (<= (first x) j)
                                                    (<= j i1))
                                                  (= (to_rep1
                                                       (get (to_array x) j)) 
                                                  (to_rep1
                                                    (get (to_array y) j)))))))
                                          (=>
                                            (in_range1 i1)
                                            (=>
                                              (not (= i1 (last x)))
                                              (let ((o3 (+ i1 1)))
                                                (=>
                                                  (in_range o3)
                                                  (forall ((i2 Int))
                                                    (=>
                                                      (= i2 o3)
                                                      (=>
                                                        (and
                                                          (<= (first y) i2)
                                                          (<= i2 (last y)))
                                                        (forall ((o4 (_ BitVec 8)))
                                                          (=>
                                                            (= (to_rep1
                                                                 (get
                                                                   (to_array
                                                                    y)
                                                                   i2)) o4)
                                                            (=>
                                                              (and
                                                                (<= (first x) i2)
                                                                (<= i2 
                                                                (last
                                                                  x)))
                                                              (forall 
                                                                ((o5 (_ BitVec 8)))
                                                                (=>
                                                                  (= 
                                                                  (to_rep1
                                                                    (get
                                                                    (to_array
                                                                    x)
                                                                    i2)) o5)
                                                                  (forall 
                                                                    ((d3 Bool))
                                                                    (=>
                                                                    (= d3 (and d2 
                                                                    (ite (= o5 o4)
                                                                    true
                                                                    false)))
                                                                    (< i1 i2)))))))))))))))))))))))))))))))))))))

(check-sat)
